&CONTROL  
outdir='./outdir'
calculation='scf'
pseudo_dir='./'
/

&SYSTEM  
ibrav=0
nat=127
ntyp=6
ecutwfc=60
ecutrho=240
occupations='smearing'
degauss=0.02
smearing='gaussian'
vdw_corr='dft-d3'
/

&ELECTRONS  
conv_thr=1.0E-8
/

ATOMIC_SPECIES  
Si     28.08550  Si.upf
O      15.99940  O.upf
Al     26.98154  Al.upf
Ag    107.86820  Ag.upf
H       1.00794  H.upf
C      12.01070  C.upf

ATOMIC_POSITIONS (angstrom) 
Si     -3.555890  11.552207   0.314934
Si      1.582757   2.615711   0.226258
Si     -1.414544   2.541042   0.291576
Si     10.414515   0.117482   0.360579
Si      5.312043   8.849574   0.277984
Si      8.368459   8.997569   0.375417
Si      3.085494  -0.161216  11.866456
Si      1.457784   2.454840  11.820031
Si     -1.637835   2.381192  11.865183
Si     10.267891  -0.127770  11.977445
Si      5.261395   8.816357  11.951908
Si      8.197060   8.871980  11.941938
Si      9.808059   3.700344  10.153120
Si      8.196200   6.303519  10.079736
Si      5.236889   6.299303  10.030270
Si      3.622248   3.801167  10.141873
Si      5.124320   1.196887  10.127950
Si      8.282108   1.109709  10.114180
Si      9.968451   3.691941   6.996047
Si      8.340123   6.436793   7.026314
Si      5.255535   6.383043   6.923374
Si      3.621160   3.759666   6.931482
Si      5.191807   1.258378   7.108586
Si      8.259970   1.224881   7.092691
Si      1.406922  10.090856   5.181908
Si     -1.568535  10.253059   5.091783
Si     -3.279891   7.681159   5.178804
Si      1.578708   4.991393   5.156300
Si      3.299978   7.645945   2.125505
Si     -1.505539  10.337430   2.133629
Si     -1.435264   5.139258   2.113134
Si      1.544989   5.052527   2.207954
O      -4.613445  10.420854   0.787756
O       2.686310   1.558758   0.736301
O       0.106414   1.968389   0.449143
O      11.142323   1.460771   0.887243
O       4.630639  10.306479   0.463568
O       6.821771   8.978464   0.811956
O      -4.266450   9.858965  11.359648
O       2.001702   0.972646  11.461247
O      -0.096746   2.517881  11.420829
O      11.400573   0.925621  11.473180
O       4.044758   9.839723  11.711636
O       6.714753   9.534362  11.742964
O       8.680429   2.607766  10.596175
O       9.285863   5.192001  10.462536
O       6.714411   5.631151  10.169114
O       4.125937   5.267490  10.587280
O       4.734872   2.703501  10.600632
O       6.695717   0.938480  10.238239
O       9.181092   2.371744   6.441645
O       9.007307   4.994597   6.776949
O       6.808020   6.312386   6.570382
O       4.620811   4.957136   6.510702
O       4.266838   2.373833   6.406668
O       6.727435   1.782506   7.205479
O       2.448868   6.364696   5.183077
O       2.396294   8.923909   5.702675
O      -0.119274   9.489206   5.263519
O      -2.772444   9.221241   5.294005
O      -2.141268   6.675828   5.678769
O       0.114260   5.375767   5.643471
O       2.709958   6.157577   2.066178
O       2.176189   8.727544   1.674019
O       0.029874  10.162557   1.699513
O      -2.212162   8.888441   2.101196
O      -2.403672   6.318310   1.564813
O       0.093490   5.748717   2.029862
O       1.792223   3.975084   1.042644
O      -1.593391   3.934579   1.042238
O       4.562217   7.703082   1.128549
O       2.314307  11.360827   1.267837
O      -2.143621  11.358479   1.063222
O      -4.461540   7.786850   1.159155
O       8.927536  -0.021163  11.077517
O      11.119865   3.538212  11.072756
O       8.338378   7.488315  11.147060
O       5.086899   7.642044  10.880579
O       4.471837   0.081147  11.087896
O       2.224047   3.555507  10.911604
O       5.101461  -0.092489   6.258796
O       8.341094  -0.092407   6.164314
O      11.362221   3.859421   6.262631
O      -4.586647   7.589287   6.138229
O       4.596892   7.604807   6.093687
O       2.195075   3.921212   6.208713
O      10.158269   3.477080   8.602522
O       8.455397   6.888147   8.589140
O       4.967062   6.679861   8.484334
O       3.392910   3.747982   8.539166
O       4.609998   0.970905   8.601890
O       8.758691   0.796393   8.589086
O      -3.412712  11.307031  13.436591
O       1.710344   2.818465  13.373282
O      -1.834423   2.636478  13.440607
O       9.858093   0.118985  13.524697
O       5.179388   8.202041  13.448799
O       8.466186   8.584014  13.507054
O       3.813734   8.031492   3.621093
O       1.783701  10.509162   3.669236
O      -1.623902  10.972887   3.633855
O      -3.745112   7.379021   3.647246
O      -1.797633   4.648157   3.581392
O       1.655996   4.333445   3.667003
Si      3.315110   7.715147   5.124663
Al     -1.558699   5.071265   5.239379
Si     -3.193536   7.594889   2.138620
Si      1.583542  10.180188   2.089283
Ag      0.006121   7.391861   7.241332
H       2.893797   8.926776   7.980818
H       2.135553   6.628005   8.572678
C       2.179817   8.746318   8.779395
C       1.739173   7.511739   9.072422
H       1.874538   9.611541   9.360340
H       1.093311   7.331647   9.929593
H      -0.929332   9.857742   9.364902
H      -1.314189   7.432337   9.393439
C      -1.748600   9.414042   8.796230
C      -1.926209   8.089455   8.777646
H      -2.443945  10.078757   8.288615
H      -2.776389   7.647785   8.264136
H      -1.772944   5.392378   8.246158
H      -1.182127   5.535216   9.995359
C      -1.009939   5.166811   8.984615
C       0.061034   4.437353   8.680535
H       0.213863   4.043151   7.682122
H       0.791083   4.203861   9.442827

K_POINTS (automatic) 
1 1 1 0 0 0

CELL_PARAMETERS {angstrom}
  13.575883649   0.028523357   0.006348864
  -6.793135294  11.451399982  -0.012479304
  -0.094784507  -0.151823469  14.716431142
