&CONTROL  
outdir='./outdir'
calculation='scf'
pseudo_dir='./'
/

&SYSTEM  
ibrav=0
nat=115
ntyp=6
ecutwfc=60
ecutrho=240
occupations='smearing'
degauss=0.02
smearing='gaussian'
vdw_corr='dft-d3'
/

&ELECTRONS  
conv_thr=1.0E-8
/

ATOMIC_SPECIES  
Si     28.08550  Si.upf
O      15.99940  O.upf
Al     26.98154  Al.upf
Ag    107.86820  Ag.upf
H       1.00794  H.upf
C      12.01070  C.upf

ATOMIC_POSITIONS (angstrom) 
Si     -3.547930  11.574506   0.326209
Si      1.636101   2.616225   0.151830
Si     -1.382652   2.491864   0.224802
Si     10.402747   0.099794   0.366200
Si      5.306074   8.820490   0.282815
Si      8.346033   9.040182   0.382901
Si      3.131305  -0.180835  11.854788
Si      1.509468   2.412982  11.795997
Si     -1.639520   2.355734  11.875613
Si     10.212683  -0.135886  12.002330
Si      5.230522   8.772800  11.972247
Si      8.174121   8.876800  11.938876
Si      9.983436   3.749502  10.141254
Si      8.256441   6.318399  10.061337
Si      5.226852   6.227801  10.070037
Si      3.464389   3.809889  10.064565
Si      5.179665   1.085257  10.133469
Si      8.266173   1.179736  10.201617
Si     10.003414   3.665392   7.017581
Si      8.351891   6.394149   7.052047
Si      5.204179   6.275409   6.999105
Si      3.523411   3.737992   7.011755
Si      5.202441   1.102046   7.156358
Si      8.214280   1.178703   7.098143
Si      1.384322  10.022272   5.252556
Si     -1.604268  10.197359   5.069698
Si     -3.285837   7.604991   5.125237
Si      1.569919   4.883428   5.078132
Si      3.322641   7.627732   2.150860
Si     -1.474525  10.266052   2.041867
Si     -1.454333   5.128396   2.015337
Si      1.514064   5.062517   2.131162
O      -4.597766  10.440255   0.812208
O       2.711576   1.583978   0.780555
O       0.154615   1.941118   0.233151
O      11.245899   1.381789   0.883673
O       4.535422  10.230642   0.402819
O       6.800696   9.067172   0.819412
O      -4.280750   9.858644  11.352443
O       2.135333   0.989391  11.344405
O      -0.068551   2.310739  11.572085
O      11.310824   0.941336  11.466693
O       4.022222   9.827090  11.795551
O       6.675891   9.495487  11.707830
O       8.925143   2.608283  10.591378
O       9.361358   5.208926  10.452247
O       6.759796   5.665718  10.096805
O       4.242263   5.093481  10.678506
O       4.417711   2.511993  10.204139
O       6.706480   1.341162  10.549494
O       9.205120   2.323223   6.571988
O       8.995302   4.933614   6.826276
O       6.780448   6.279643   6.753098
O       4.651580   4.812213   6.550496
O       4.101172   2.245766   6.943740
O       6.686560   1.734686   6.961106
O       2.398426   6.273243   5.166623
O       2.347715   8.826980   5.761559
O      -0.159846   9.492006   5.391425
O      -2.781210   9.130280   5.295846
O      -2.146093   6.574060   5.639356
O       0.078567   5.202369   5.573479
O       2.692492   6.155743   2.027347
O       2.228543   8.734664   1.695001
O       0.068514  10.124735   1.617152
O      -2.183440   8.821806   1.914925
O      -2.453592   6.258605   1.414777
O       0.060482   5.779948   2.004125
O       1.725231   4.014070   0.929041
O      -1.487503   3.871746   1.009186
O       4.617428   7.674561   1.187387
O       2.349329  11.379944   1.349307
O      -2.119435  11.352388   1.036717
O      -4.519025   7.793833   1.151537
O       8.872846  -0.025970  11.101258
O      11.333758   3.614128  11.020114
O       8.342862   7.479482  11.165891
O       5.028099   7.573932  10.922596
O       4.579118  -0.004301  11.164089
O       2.077501   3.613791  10.870503
O       4.898484  -0.049018   6.092281
O       8.417796  -0.151599   6.210734
O      11.330574   3.792018   6.165421
O      -4.622999   7.465828   6.028260
O       4.555160   7.468628   6.125388
O       2.236917   3.773771   6.047081
O      10.391649   3.576702   8.597157
O       8.588162   6.920004   8.584267
O       4.813650   6.581188   8.544016
O       3.047367   4.089543   8.524760
O       5.066951   0.450621   8.642185
O       8.516175   0.789509   8.648591
O      -3.467070  11.327581  13.439384
O       1.912251   2.767564  13.319335
O      -1.956092   2.652472  13.426515
O       9.806158   0.155018  13.548502
O       5.211689   8.134412  13.465197
O       8.427959   8.622450  13.512705
O       3.789349   7.956295   3.672398
O       1.705609  10.425831   3.714698
O      -1.605487  10.810113   3.567519
O      -3.643030   7.315176   3.570096
O      -1.892828   4.646565   3.466441
O       1.624912   4.287402   3.562557
Si      3.267878   7.627817   5.170534
Al     -1.596157   4.956476   5.115789
Si     -3.188901   7.554295   2.030965
Si      1.595737  10.168086   2.114943
Ag     -0.606966   6.601680   7.327362
H       0.408440   5.361378   9.491664
H      -1.716348   6.651355   9.798689
C       0.374518   6.439381   9.319237
C      -0.795233   7.148641   9.485706
H       1.341982   6.940289   9.235386
H      -0.796635   8.238941   9.533811

K_POINTS (automatic) 
3 3 3 0 0 0

CELL_PARAMETERS {angstrom}
  13.575883649   0.028523357   0.006348864
  -6.793135294  11.451399982  -0.012479304
  -0.094784507  -0.151823469  14.716431142
