&CONTROL  
outdir='./outdir'
calculation='vc-relax'
pseudo_dir='./'
forc_conv_thr =  0.001
etot_conv_thr = 0.0001
/

&SYSTEM
ibrav       = 0    
ecutwfc     = 60
ecutrho     = 240
nat         = 108
ntyp        = 2
occupations = 'smearing'
smearing    = 'gaussian'
degauss     = 0.02
/

&ELECTRONS
conv_thr    =  1.00000e-08
/

&IONS
ion_dynamics = 'bfgs'
/

&CELL
cell_dofree    = 'all'
cell_dynamics  = 'bfgs'
press_conv_thr =  0.05
/

K_POINTS {automatic}
3  3  3  0 0 0

ATOMIC_SPECIES
Si     28.08550  Si.upf
O      15.99940  O.upf

ATOMIC_POSITIONS {angstrom}
Si              -3.5638687727       11.5531506558        0.3376480949
Si               1.6012940519        2.5776639546        0.2327846774
Si              -1.4096539622        2.5207703396        0.2787692895
Si              10.3648005261        0.1121275493        0.3289503881
Si               5.2740501905        8.8194156264        0.2720490396
Si               8.2904099751        8.9480309898        0.3498660501
Si               3.1612628231       -0.1307200501       11.8788656788
Si               1.5218805335        2.4374620278       11.8343157968
Si              -1.6377960983        2.4873241830       11.8912833902
Si              10.2898477380       -0.0859101613       11.9212383789
Si               5.2331623272        8.7048249641       11.8701546903
Si               8.2585684494        8.7231521034       11.8738367726
Si               9.9850254487        3.6732732377       10.0437525184
Si               8.2370016812        6.3094329852       10.0604608524
Si               5.2116665573        6.2705441568       10.0766017080
Si               3.5276666137        3.7041441790       10.0952908260
Si               5.1671256180        1.1215836672       10.1343554532
Si               8.3231045919        1.0922083803       10.0817115806
Si               9.9988690491        3.6463900874        6.9791924687
Si               8.2845337643        6.3679077494        7.0047674260
Si               5.2664581554        6.2171525290        6.9214583888
Si               3.5368164980        3.6126616815        6.9298907599
Si               5.1812579763        1.1547856725        7.0714503784
Si               8.1886454818        1.2239624771        7.0224169531
Si               1.4390577556       10.0505934182        5.1317473775
Si              -1.4978569469       10.0938542570        5.0919525490
Si              -3.3151579135        7.5590038025        5.1653895526
Si               1.4995919778        4.9478236202        5.1550108684
Si               3.2979490031        7.6011981648        2.1077115333
Si              -1.5229851508       10.2084499397        2.1131276462
Si              -1.4638209283        5.1167926688        2.1376411553
Si               1.4736648609        5.0722823311        2.1680481518
O               -4.6374611657       10.3809481368        0.6404448906
O                2.6481515884        1.5413743540        0.8949247137
O                0.1077291329        1.9277527641        0.2583263981
O               11.1870224746        1.3962516889        0.8627887349
O                4.4809317983       10.2153926847        0.4364887408
O                6.7624492502        9.0441064449        0.8420221736
O               -4.2818464949        9.8657317733       11.4993913914
O                2.0958759204        0.9893625426       11.3765465598
O               -0.0622221888        2.4429572477       11.6231673539
O               11.3415681563        1.0611107428       11.4574881558
O                4.2109626665        9.9237672959       11.7263976019
O                6.7440859060        9.1521031535       11.4473278346
O                8.9264046814        2.5363413644       10.5182651124
O                9.2646832394        5.0924944981       10.1826055623
O                6.7320019861        5.8530540376       10.4941364888
O                4.1779696855        5.1164080475       10.4831932417
O                4.5835550950        2.5686333245       10.5782913878
O                6.7489321939        1.1329754855       10.3611812993
O                9.1690443845        2.3674959355        6.4418807195
O                9.0850636562        4.9735511769        6.8569744761
O                6.7973587822        6.1273993301        6.4373592217
O                4.6071484930        4.7772785967        6.5879014676
O                4.1214834550        2.1890730907        6.4296534294
O                6.6698857398        1.8146057429        7.0319665070
O                2.2130922142        6.3990673905        5.2629544725
O                2.5290655375        8.9867096107        5.6609837953
O               -0.0427598735        9.3642501482        5.2137375883
O               -2.6611952051        9.0158788897        5.3117277819
O               -2.2448646765        6.4281831529        5.6160453452
O               -0.0315157158        5.1010498266        5.6199607946
O                2.6324783162        6.1521883720        1.9367646946
O                2.2302053803        8.7448458635        1.6873750764
O                0.0095054557       10.0571362100        1.6496367386
O               -2.2294455009        8.7528449558        2.0152608108
O               -2.5529805895        6.1701771303        1.5861025982
O                0.0179909375        5.8006203810        2.0504380711
O                1.6429855161        3.9544495056        1.0384776536
O               -1.5066011067        3.8003023488        1.2298879277
O                4.5856066643        7.6442802770        1.1378118784
O                2.2368636758       11.3872495253        1.2111263713
O               -2.1924209547       11.2891546818        1.1287162559
O               -4.5545525625        7.7628206920        1.1723047233
O                8.9823797235       -0.0914030504       10.9679733743
O               11.2904336642        3.6837956087       11.0010560358
O                8.7872554888        7.4460506597       11.0522909733
O                4.6906261294        7.5639696013       10.8794009006
O                4.5561827782       -0.0422726176       11.0704923631
O                2.1293041089        3.6033907877       10.8971025545
O                5.1397227402       -0.2140270255        6.2532989868
O                8.2956168834       -0.0723702791        6.0933510758
O               11.3168496984        3.7969082734        6.0606739847
O               -4.6117470447        7.5228538975        6.1236913371
O                4.5330824552        7.4053157929        6.1145939427
O                2.1626080498        3.8564963975        6.1339383071
O               10.4602049887        3.4116380546        8.5153932018
O                8.2302941279        6.8738774604        8.5411464072
O                5.1556865102        6.5694761613        8.4914195323
O                3.2147360387        3.5800121002        8.5138362069
O                4.7737845573        0.8089850718        8.5978758340
O                8.6245337631        0.7843775468        8.5205885087
O               -3.3218901522       11.4545848056       13.4238989149
O                1.9290507954        2.7308569780       13.3711326022
O               -1.9511470144        2.7975726997       13.4509552571
O                9.8171528038        0.1561996419       13.4532989780
O                5.2254743635        8.1563094853       13.3950611765
O                8.2943096308        8.3824789036       13.4522972924
O                3.7889228394        7.8202956026        3.6365324869
O                1.7583783769       10.5221202768        3.6161512442
O               -1.6341634591       10.7883475653        3.6285969247
O               -3.7936693861        7.3085800829        3.6374674606
O               -1.7946802451        4.6742256216        3.6583868350
O                1.6135895763        4.3833085293        3.6339557020
Si               3.2592930176        7.6347004748        5.1584137056
Si              -1.5869845933        4.9958582335        5.2303085270
Si              -3.2752689015        7.5169368235        2.1151282728
Si               1.5618527006       10.1781494767        2.0465925619

CELL_PARAMETERS {angstrom}
  13.580062875   0.016952932   0.006721905
  -6.805242146  11.423568454  -0.030227206
  -0.094817707  -0.174905318  14.664905165



