&CONTROL  
outdir='./outdir'
calculation='vc-relax'
pseudo_dir='./'
forc_conv_thr =  0.001
etot_conv_thr = 0.0001
/

&SYSTEM
ibrav       = 0    
ecutwfc     = 60
ecutrho     = 240
nat         = 109
ntyp        = 4
occupations = 'smearing'
smearing    = 'gaussian'
degauss     = 0.02
/

&ELECTRONS
conv_thr    =  1.00000e-08
/

&IONS
ion_dynamics = 'bfgs'
/

&CELL
cell_dofree    = 'all'
cell_dynamics  = 'bfgs'
press_conv_thr =  0.05
/

K_POINTS {automatic}
3  3  3  0 0 0

ATOMIC_SPECIES
Si     28.08550  Si.upf
O      15.99940  O.upf
Al     26.98154  Al.upf
Ag    107.86820  Ag.upf

ATOMIC_POSITIONS {angstrom}
Si              -3.6454092864       11.5842372592        0.3633262127
Si               1.5985769654        2.6370705383        0.2310369195
Si              -1.4065086990        2.5376394391        0.2454529950
Si              10.4313779586        0.1213139149        0.3652529317
Si               5.2949121447        8.8328468633        0.2813249940
Si               8.2777979348        9.0312517328        0.3414009172
Si               3.1622243215       -0.1138814356       11.9180211890
Si               1.5198947359        2.4656699298       11.8460929400
Si              -1.6139228891        2.3759322893       11.8618150682
Si              10.2415136059       -0.1215040576       11.9729040820
Si               5.2011704295        8.7487856011       11.8935730523
Si               8.1987183190        8.8683799690       11.8743333362
Si               9.9544519118        3.7212096074       10.1769104116
Si               8.3040901561        6.3417791024       10.1366336809
Si               5.2195904237        6.2540228752       10.1242524232
Si               3.4752628575        3.7732518579       10.0666594569
Si               5.1646681601        1.0563976231       10.1183494780
Si               8.2953709766        1.1526849486       10.1913805852
Si              10.0270330049        3.6565848264        7.0188642459
Si               8.3585502686        6.3578221802        7.0338906791
Si               5.2539300525        6.2889954065        6.9839954701
Si               3.5252901832        3.7434130910        6.9973565752
Si               5.2184483639        1.1250941087        7.1631878965
Si               8.2643966661        1.1976159379        7.1189502232
Si               1.4554569133       10.1101237780        5.2021896095
Si              -1.5833555963       10.2017967504        5.0973373923
Si              -3.3516680021        7.6288741421        5.1134194833
Si               1.5714386489        4.9336577437        5.1157185872
Si               3.2888404731        7.6462047089        2.1270645709
Si              -1.4898284340       10.2101756486        2.0842651122
Si              -1.4727707084        5.0738815227        2.1237966958
Si               1.4463702879        5.1083977748        2.1603134489
O               -4.8115319256       10.5079113205        0.7084043549
O                2.6784911231        1.6053745342        0.8589798714
O                0.1197459684        1.9690806124        0.3409458949
O               11.1916399198        1.4460736660        0.8905601869
O                4.6094054534       10.2828436540        0.5084858361
O                6.7777482066        8.8837301546        0.9146937335
O               -4.3163859116        9.9636578207       11.4412177263
O                2.1876336991        1.0643433052       11.4038138135
O               -0.0443911753        2.3322835481       11.5488759901
O               11.3228755268        0.9705145388       11.4414815154
O                4.0778877872        9.8750728960       11.7159771757
O                6.6784142840        9.2741976214       11.4409026982
O                8.9199397753        2.5696685517       10.6670752198
O                9.3071997181        5.1502158986       10.5156850085
O                6.7710068521        5.8761728012       10.4079823187
O                4.3131831746        5.0266080235       10.6238003450
O                4.4295511826        2.4851459200       10.2445287330
O                6.7168073866        1.2856267138       10.4224119804
O                9.2093776695        2.3408432694        6.5226047845
O                9.0730905019        4.9475259279        6.7253511559
O                6.8091459509        6.1886711206        6.6274988768
O                4.5966219889        4.8724916651        6.5459319640
O                4.1722062701        2.2873650846        6.8367894634
O                6.7236257080        1.7200723991        7.0589967964
O                2.4244754964        6.3249602673        5.1766155682
O                2.4316922339        8.8946525454        5.6232685107
O               -0.0901086367        9.5228596458        5.4044328753
O               -2.7105207859        9.1050809630        5.3644353393
O               -2.2149439931        6.5415771210        5.4483175209
O                0.1101031729        5.2854067433        5.6909311286
O                2.6188339258        6.1982178927        2.0489859547
O                2.1863385600        8.7837819624        1.7835791904
O                0.0382545447       10.2149609145        1.5774036147
O               -2.0616369924        8.7004395735        2.0372389528
O               -2.6008748575        6.1563319151        1.7116692127
O               -0.0046997996        5.8211636014        1.9962504134
O                1.7018923145        4.0336007385        0.9995899557
O               -1.5564910674        3.9346383919        0.9902031579
O                4.4831396190        7.6699646713        1.0511825848
O                2.3294039561       11.4092275086        1.2848879177
O               -2.2918975046       11.2322907032        1.1485080213
O               -4.3774933137        7.8772765379        1.0160053427
O                8.8724896964       -0.0485416101       11.1108896057
O               11.3405127319        3.6167159036       11.0011887976
O                8.7046048337        7.5551151183       11.1054974164
O                4.7248258103        7.5291199256       10.9662184141
O                4.6042559719       -0.0036777717       11.1965026004
O                2.1264180700        3.6598406673       10.9443653273
O                4.9666773934       -0.0329045744        6.0961101316
O                8.4679625038       -0.1305461945        6.2262804118
O               11.4125674685        3.7459058027        6.2606684706
O               -4.6064333173        7.5258311088        6.1273145436
O                4.5949654129        7.5120716757        6.1403484777
O                2.2394431790        3.7906031435        6.0349212514
O               10.2774996623        3.5489566837        8.6159949177
O                8.4937708758        6.7948815585        8.5919312693
O                4.9961401444        6.5835506867        8.5533112543
O                3.0411603740        4.0011088847        8.5221399586
O                4.9482545501        0.4665250465        8.6206933590
O                8.6474643271        0.8037065035        8.6447681722
O               -3.4012919290       11.4148404366       13.4990671360
O                1.8459404523        2.7777199843       13.3939459605
O               -1.9097940834        2.6561880300       13.4202745496
O                9.8742885075        0.1224583616       13.5341567414
O                5.2477961592        8.2661365530       13.4369332266
O                8.2400292502        8.6287289989       13.4669934608
O                3.8998351327        7.9082680594        3.6173235400
O                1.6630613879       10.5917142250        3.6790412222
O               -1.5823633001       10.7904956518        3.6000263616
O               -3.9056857120        7.5446844001        3.5848817081
O               -1.6886703121        4.4318281345        3.5617338186
O                1.5510049307        4.3571703663        3.6005688374
Si               3.3546677249        7.6468678536        5.1205082301
Al              -1.5505820968        4.9200419477        5.2026937160
Si              -3.2351762439        7.5717335630        2.1033285652
Si               1.5628341342       10.2452066902        2.0887927113
Ag              -0.1175219055        7.4213850249        6.4061159082

CELL_PARAMETERS {angstrom}
 13.874800   0.000000   0.000000
 -6.967175  11.758825   0.000000
 -0.103515  -0.142794  15.237979



