&CONTROL  
outdir='./outdir'
calculation='scf'
pseudo_dir='./'
/

&SYSTEM  
ibrav=0
nat=108
ntyp=2
ecutwfc=60
ecutrho=240
occupations='smearing'
degauss=0.02
smearing='gaussian'
vdw_corr='dft-d3'
/

&ELECTRONS  
conv_thr=1.0E-8
/

ATOMIC_SPECIES  
Si     28.08550  Si.upf
O      15.99940  O.upf

ATOMIC_POSITIONS (angstrom) 
Si      3.209838   0.081856   1.646459
Si      1.598140   2.577001   1.448839
Si     -1.429980   2.491076   1.555049
Si     10.339194   0.055506   1.547368
Si      5.257318   8.754192   1.464930
Si     -5.262660   8.951458   1.652131
Si      3.110004  -0.208357  13.107554
Si      1.498537   2.400940  13.050157
Si     -1.653784   2.461926  13.174120
Si     10.274264  -0.125619  13.178338
Si      5.277675   8.721838  13.139502
Si     -5.325735   8.743923  13.176281
Si      9.979210   3.672450  11.295551
Si      8.170285   6.248033  11.309043
Si      5.198048   6.212786  11.263587
Si      3.564079   3.743398  11.363263
Si      5.176058   1.139185  11.422943
Si      8.327551   1.070984  11.294268
Si     10.006736   3.668160   8.259553
Si      8.281403   6.391472   8.313917
Si      5.226220   6.182320   8.119644
Si      3.556163   3.627489   8.158477
Si      5.171240   1.138146   8.355703
Si      8.195490   1.222046   8.245441
Si      1.425287  10.017767   6.393354
Si     -1.531195  10.104883   6.339522
Si     -3.328161   7.563499   6.419536
Si      1.500584   4.929210   6.415737
Si      3.288411   7.572653   3.359572
Si     -1.540413  10.209291   3.367428
Si     -1.464981   5.115712   3.381727
Si      1.494539   5.029299   3.441239
O      -4.644542  10.375868   2.120772
O       2.657700   1.536415   2.086693
O       0.101630   1.927969   1.510678
O      11.176324   1.331781   2.092234
O       4.471834  10.163039   1.557242
O       6.750094   9.020221   1.999990
O      -4.232705   9.772312  12.580336
O       2.032555   0.919188  12.650069
O      -0.086381   2.457952  12.849577
O      11.357256   1.013586  12.771093
O       4.150112   9.851607  12.998320
O       6.760055   9.377826  12.954011
O       8.897853   2.534256  11.709741
O       9.300187   5.119832  11.446512
O       6.689097   5.592257  11.504554
O       4.098496   5.188813  11.854421
O       4.643249   2.620135  11.829046
O       6.760872   1.075639  11.623318
O       9.174278   2.391407   7.709020
O       9.066167   4.982190   8.219462
O       6.791565   6.127374   7.768915
O       4.600625   4.760944   7.652485
O       4.109942   2.174461   7.712489
O       6.666018   1.791232   8.289214
O       2.240035   6.369508   6.487557
O       2.477078   8.947621   6.996310
O      -0.075924   9.374436   6.472771
O      -2.721188   9.045772   6.526218
O      -2.225857   6.486865   6.924919
O      -0.030183   5.141293   6.859519
O       2.682348   6.090433   3.252948
O       2.185212   8.648086   2.852814
O      -0.010298   9.998176   2.920185
O      -2.279872   8.768661   3.298335
O      -2.514364   6.190822   2.782749
O       0.037710   5.754669   3.300942
O       1.667254   3.939009   2.283282
O      -1.553054   3.746311   2.547022
O       4.587505   7.625362   2.404126
O       2.238544  11.290132   2.461190
O      -2.170499  11.281030   2.337921
O      -4.600036   7.729131   2.473214
O       9.013233  -0.099115  12.172177
O      -2.334797   3.628579  12.288248
O       8.438085   7.342566  12.452733
O       5.014152   7.632768  11.990035
O       4.542688   0.025185  12.404920
O       2.129507   3.511766  12.062767
O      -1.697467  11.191950   7.502330
O       1.506815  11.387703   7.226687
O      -2.275517   3.844556   7.313702
O       8.954463   7.525852   7.383764
O       4.561801   7.408812   7.306339
O       2.127564   3.854965   7.445013
O      10.506364   3.411609   9.782434
O       8.260987   6.948743   9.841910
O       4.945154   6.449260   9.686429
O       3.370344   3.706609   9.760022
O       4.765314   0.802294   9.889807
O       8.628657   0.742920   9.734528
O       3.401889  -0.003764   0.045809
O       1.909661   2.746772  14.581401
O      11.715481   2.989035   0.073449
O       9.834538   0.306497   0.024846
O       5.177006   8.015762  14.603726
O       8.611738   8.699667   0.094225
O       3.726838   7.900595   4.885681
O       1.797403  10.371775   4.857788
O      -1.641551  10.816611   4.877643
O      -3.767796   7.234825   4.893850
O      -1.834403   4.762748   4.918337
O       1.605027   4.323477   4.905506
Si      3.242552   7.641301   6.412875
Si     -1.591008   5.058058   6.490405
Si     -3.281488   7.495739   3.367574
Si      1.551856  10.078356   3.285652

K_POINTS (automatic) 
3 3 3 0 0 0

CELL_PARAMETERS {angstrom}
 13.580063   0.016953   0.006722
 -6.805242  11.423568  -0.030227
 -0.094818  -0.174905  14.664905
