&CONTROL  
outdir='./outdir'
calculation='relax'
pseudo_dir='./'
forc_conv_thr =  0.001
etot_conv_thr = 0.0001
/

&SYSTEM
ibrav       = 0    
ecutwfc     = 60
ecutrho     = 240
nat         = 126
ntyp        = 4
occupations = 'smearing'
smearing    = 'gaussian'
degauss     = 0.02
vdw_corr    = 'dft-d3'
/

&ELECTRONS
conv_thr    =  1.00000e-08
/

&IONS
ion_dynamics = 'bfgs'
/

K_POINTS {gamma}

ATOMIC_SPECIES
Si     28.08550  Si.upf
O      15.99940  O.upf
H       1.00794  H.upf
C      12.01070  C.upf

ATOMIC_POSITIONS {angstrom}
Si      3.195212   0.097355   1.538801
Si      1.548518   2.614367   1.346067
Si     -1.463311   2.480554   1.369351
Si     10.319363   0.103554   1.383540
Si      5.214858   8.786949   1.308369
Si     -5.295995   9.000947   1.502432
Si      3.111661  -0.145722  13.006037
Si      1.485068   2.498458  12.967036
Si     -1.665750   2.433850  12.979825
Si     10.246506  -0.085565  12.990586
Si      5.229464   8.773492  12.979235
Si     -5.383188   8.854601  13.021578
Si      9.959999   3.746755  11.231017
Si      8.140481   6.293259  11.216980
Si      5.208969   6.228905  11.149058
Si      3.469697   3.833141  11.204552
Si      5.137719   1.190617  11.287657
Si      8.274866   1.217766  11.251811
Si      9.989645   3.703496   8.173301
Si      8.262432   6.419659   8.193349
Si      5.231689   6.219833   7.976612
Si      3.499216   3.699164   8.024102
Si      5.161890   1.164675   8.224087
Si      8.190717   1.300532   8.159739
Si      1.482714  10.193223   6.213146
Si     -1.483988  10.076705   6.247824
Si     -3.362012   7.607436   6.261879
Si      1.498617   5.088727   6.310596
Si      3.247376   7.559494   3.213957
Si     -1.557969  10.146758   3.210771
Si     -1.574965   5.014179   3.299886
Si      1.404562   5.170385   3.259306
O      -4.678821  10.410153   2.026188
O       2.645587   1.570942   1.917553
O       0.070658   1.917486   1.339372
O      11.168123   1.343224   1.999069
O       4.414487  10.186361   1.398468
O       6.711342   9.053476   1.836879
O      -4.299768   9.885843  12.409608
O       2.093089   1.043671  12.593042
O      -0.091280   2.432558  12.719162
O      11.342787   1.009276  12.489405
O       4.055276   9.858222  12.810434
O       6.693938   9.480152  12.820575
O       8.873805   2.649621  11.730772
O       9.326942   5.220368  11.376406
O       6.684825   5.591964  11.452723
O       4.069409   5.244139  11.728384
O       4.523529   2.661307  11.589773
O       6.710073   1.257276  11.569703
O       9.148270   2.458429   7.569912
O       9.062557   5.022790   8.116796
O       6.791542   6.168975   7.584678
O       4.577116   4.806582   7.516285
O       4.060643   2.220520   7.692621
O       6.647495   1.831151   8.127310
O       2.116664   6.539845   6.707085
O       2.669364   9.124873   6.431144
O       0.026346   9.465585   6.359618
O      -2.539602   8.935337   6.633665
O      -2.380500   6.339782   6.389898
O      -0.077187   5.151453   6.595322
O       2.408716   6.288015   2.679628
O       2.322763   8.876625   3.114092
O      -0.006819  10.005644   2.804071
O      -2.233931   8.687751   2.992617
O      -2.729664   6.090975   2.961158
O      -0.119371   5.757891   3.265209
O       1.527798   3.891636   2.304581
O      -1.604906   3.833770   2.215929
O       4.546184   7.673480   2.262688
O       2.164135  11.365229   2.220971
O      -2.201032  11.287363   2.258646
O      -4.619491   7.736997   2.248375
O       8.923156  -0.017104  12.070144
O      -2.300095   3.668325  12.148688
O       8.374866   7.445006  12.310432
O       5.033753   7.678187  11.822120
O       4.545958   0.081509  12.302874
O       2.061291   3.627738  11.965682
O      -1.715134  11.273654   7.288121
O       1.608333  11.384540   7.279363
O      -2.246316   3.843208   7.292861
O       8.990143   7.551785   7.310186
O       4.547007   7.481134   7.226501
O       2.110970   3.902131   7.225994
O      10.417761   3.423574   9.710499
O       8.179812   6.951315   9.728598
O       5.014182   6.428002   9.560873
O       3.208129   3.868243   9.609127
O       4.826961   0.743307   9.758237
O       8.592293   0.958808   9.689796
O       3.413351  -0.026008  -0.058859
O       1.843199   2.904579  14.500002
O      11.646884   2.873051  -0.125564
O       9.896168   0.408388  -0.150076
O       5.121997   8.057713  14.440196
O       8.575151   8.828694  -0.065632
O       3.725918   7.347542   4.747189
O       1.614391  10.862299   4.734769
O      -1.740315  10.641929   4.747639
O      -3.955340   7.669651   4.755345
O      -1.815882   4.335098   4.758937
O       1.825352   4.728546   4.762918
Si      3.247523   7.627916   6.274644
Si     -1.629159   4.921845   6.264855
Si     -3.365702   7.550784   3.246645
Si      1.523907  10.273914   3.223885
H      -1.497067   7.732288   9.278595
C      -1.645512   6.691660   9.562533
H       0.372120   6.094084   9.300843
C      -0.644266   5.813821   9.577281
H      -2.657358   6.415953   9.850849
H      -0.798244   4.773194   9.855061
H      -0.465678   9.251649  13.030483
H       1.455589   7.687155  13.056241
C      -0.602708   8.174420  12.926623
C       0.430926   7.332718  12.939927
H      -1.623469   7.818090  12.778903
H       0.298083   6.258459  12.804475
H       2.772508   7.647827   9.666718
H       0.383026   8.200005   9.492161
C       2.416070   8.671172   9.786533
C       1.122039   8.965048   9.695502
H       3.164416   9.433227   9.995052
H       0.748758   9.977489   9.833886

CELL_PARAMETERS {angstrom}
 13.580063   0.016953   0.006722
 -6.805242  11.423568  -0.030227
 -0.094818  -0.174905  14.664905




