&CONTROL  
outdir='./outdir'
calculation='scf'
pseudo_dir='./'
/

&SYSTEM  
ibrav=0
nat=120
ntyp=4
ecutwfc=60
ecutrho=240
occupations='smearing'
degauss=0.02
smearing='gaussian'
vdw_corr='dft-d3'
/

&ELECTRONS  
conv_thr=1.0E-8
/

ATOMIC_SPECIES  
Si     28.08550  Si.upf
O      15.99940  O.upf
H       1.00794  H.upf
C      12.01070  C.upf

ATOMIC_POSITIONS (angstrom) 
Si      3.184561   0.047757   1.573060
Si      1.578238   2.544656   1.359767
Si     -1.419016   2.445580   1.446939
Si     10.367965   0.043250   1.472753
Si      5.263139   8.732198   1.391688
Si     -5.267653   8.936670   1.569841
Si      3.108702  -0.241577  13.031602
Si      1.492570   2.386159  12.963878
Si     -1.657454   2.385465  13.052743
Si     10.251882  -0.161691  13.081958
Si      5.260844   8.720849  13.048011
Si     -5.384608   8.776597  13.077043
Si      9.965197   3.678411  11.246175
Si      8.165271   6.246233  11.232695
Si      5.197595   6.180762  11.175333
Si      3.538445   3.739556  11.306501
Si      5.139360   1.113080  11.370657
Si      8.299068   1.087460  11.249914
Si      9.955632   3.657395   8.199576
Si      8.281156   6.408049   8.251852
Si      5.194481   6.165155   8.054683
Si      3.553532   3.605411   8.101266
Si      5.123841   1.080976   8.321016
Si      8.155001   1.201380   8.213192
Si      1.429884  10.033789   6.304602
Si     -1.548910  10.089782   6.254716
Si     -3.331646   7.520224   6.300000
Si      1.487518   4.889506   6.346270
Si      3.234384   7.546424   3.255465
Si     -1.555413  10.216280   3.312116
Si     -1.468280   5.053706   3.305789
Si      1.492276   4.995378   3.371234
O      -4.683627  10.365669   2.080942
O       2.670766   1.526275   1.973920
O       0.101527   1.850606   1.407651
O      11.179340   1.323917   2.046068
O       4.518912  10.163725   1.486606
O       6.754880   8.917836   1.966681
O      -4.264169   9.764020  12.456733
O       2.079592   0.925086  12.564859
O      -0.089418   2.363970  12.735322
O      11.343208   0.948768  12.612159
O       4.068141   9.785205  12.884596
O       6.712843   9.447090  12.862381
O       8.881357   2.545887  11.672890
O       9.316409   5.141586  11.433248
O       6.694594   5.542585  11.329217
O       4.112245   5.166692  11.813525
O       4.571844   2.579753  11.779218
O       6.727283   1.128895  11.539549
O       9.087874   2.399913   7.664814
O       9.042954   4.988377   8.153297
O       6.770563   6.175357   7.753604
O       4.623036   4.716432   7.584694
O       4.066185   2.127239   7.686935
O       6.615616   1.738705   8.275160
O       2.146415   6.364855   6.484486
O       2.461884   8.940666   6.901557
O      -0.072969   9.397356   6.323942
O      -2.692343   8.984206   6.441022
O      -2.240797   6.403831   6.726996
O      -0.070235   5.001666   6.713067
O       2.639167   6.069489   3.057681
O       2.136797   8.649724   2.804832
O      -0.010935  10.070754   2.905826
O      -2.239445   8.747804   3.241356
O      -2.489540   6.163900   2.731609
O       0.026915   5.708922   3.329251
O       1.593334   3.884675   2.226663
O      -1.503182   3.754937   2.365756
O       4.536728   7.624624   2.308589
O       2.248747  11.276036   2.356135
O      -2.190909  11.251031   2.250346
O      -4.523874   7.708963   2.303784
O       8.940010  -0.095752  12.144977
O      -2.320255   3.589909  12.200840
O       8.323071   7.348655  12.389931
O       5.081623   7.599526  11.915193
O       4.567429  -0.015555  12.377807
O       2.089897   3.531506  11.990072
O      -1.721256  11.140193   7.453950
O       1.486832  11.364804   7.200238
O      -2.330202   3.783455   7.240822
O       8.966744   7.503965   7.288785
O       4.514216   7.364165   7.216680
O       2.124101   3.839469   7.393703
O      10.459626   3.415741   9.722739
O       8.323594   6.968660   9.780329
O       4.863964   6.430706   9.614294
O       3.367846   3.712644   9.702180
O       4.708374   0.729444   9.851781
O       8.626012   0.743654   9.698138
O       3.357715  -0.081227  -0.027314
O       1.873110   2.756078  14.497302
O      11.708324   2.882803  -0.045552
O       9.892383   0.305139  -0.054850
O       5.191435   8.025549  14.518738
O       8.559425   8.760728  -0.004987
O       3.652046   7.799005   4.800570
O       1.849041  10.435063   4.789743
O      -1.717814  10.835683   4.813920
O      -3.819196   7.251448   4.775456
O      -1.887235   4.579838   4.800235
O       1.713226   4.319413   4.836216
Si      3.183882   7.601628   6.339991
Si     -1.634416   4.947863   6.359743
Si     -3.256265   7.484804   3.269654
Si      1.557777  10.104815   3.228687
H      -1.159817   8.943052   9.430193
C      -1.235040   7.868798   9.609127
H       0.793739   7.456354   9.175782
C      -0.182552   7.064417   9.469118
H      -2.217396   7.497651   9.904741
H      -0.248104   5.989936   9.648051
H      -0.387227   9.264300  13.608796
H       1.620563   7.814273  13.355387
C      -0.467724   8.200687  13.374898
C       0.607545   7.423679  13.238878
H      -1.473400   7.802897  13.224444
H       0.518520   6.367426  12.978010

K_POINTS (automatic) 
1 1 1 0 0 0

CELL_PARAMETERS {angstrom}
 13.580063   0.016953   0.006722
 -6.805242  11.423568  -0.030227
 -0.094818  -0.174905  14.664905
