&CONTROL  
outdir='./outdir'
calculation='relax'
pseudo_dir='./'
forc_conv_thr = 0.0010
etot_conv_thr = 0.0001
/

&SYSTEM
ibrav       = 0    
ecutwfc     = 60
ecutrho     = 240
nat         = 121
ntyp        = 6
occupations = 'smearing'
smearing    = 'gaussian'
degauss     = 0.02
vdw_corr    = 'dft-d3'
/

&ELECTRONS
conv_thr    =  1.00000e-08
/

&IONS
ion_dynamics = 'bfgs'
/

K_POINTS {gamma}

ATOMIC_SPECIES
Si     28.08550  Si.upf
O      15.99940  O.upf
Al     26.98154  Al.upf
Ag    107.86820  Ag.upf
H       1.00794  H.upf
C      12.01070  C.upf

ATOMIC_POSITIONS {angstrom}
Si     -3.558176  11.492481   0.313583
Si      1.618581   2.618489   0.187866
Si     -1.404621   2.499547   0.271682
Si     10.417510   0.063096   0.349848
Si      5.302880   8.772615   0.258274
Si      8.342065   8.973798   0.350530
Si      3.154077  -0.241763  11.882069
Si      1.487994   2.422096  11.830224
Si     -1.639811   2.351552  11.883011
Si     10.225703  -0.153885  11.991641
Si      5.226659   8.741403  11.936371
Si      8.183011   8.824718  11.901036
Si      9.936498   3.676220  10.131872
Si      8.169423   6.242321  10.094182
Si      5.192683   6.203008  10.073445
Si      3.542977   3.714700  10.121537
Si      5.141214   1.111380  10.152474
Si      8.314489   1.092017  10.120545
Si     10.030273   3.642506   7.019422
Si      8.300099   6.365134   7.040789
Si      5.238591   6.242829   6.928841
Si      3.577873   3.648783   6.914134
Si      5.189734   1.144235   7.116870
Si      8.238855   1.187283   7.083796
Si      1.410837  10.020260   5.214874
Si     -1.544673  10.128746   5.113095
Si     -3.375744   7.622649   5.141335
Si      1.531852   4.983306   5.203413
Si      3.302410   7.610843   2.159765
Si     -1.490070  10.245139   2.125569
Si     -1.410262   5.086439   2.111520
Si      1.517421   5.046149   2.205592
O      -4.666921  10.404099   0.781182
O       2.710988   1.527544   0.651359
O       0.136120   1.961953   0.339164
O      11.211625   1.368677   0.875693
O       4.600441  10.224282   0.387073
O       6.804681   8.908845   0.815657
O      -4.290011   9.831132  11.326291
O       2.146274   0.973095  11.528345
O      -0.078388   2.310155  11.514505
O      11.309056   0.938170  11.467824
O       4.047794   9.822358  11.774551
O       6.682589   9.421913  11.641939
O       8.858670   2.547234  10.590782
O       9.308272   5.141842  10.366719
O       6.687090   5.590029  10.298990
O       4.107877   5.141889  10.620616
O       4.579053   2.563922  10.605717
O       6.727381   1.103152  10.313617
O       9.175741   2.351945   6.495408
O       9.078922   4.964847   6.879422
O       6.787438   6.140300   6.544985
O       4.591878   4.830624   6.475270
O       4.194854   2.229052   6.456913
O       6.702747   1.738870   7.156667
O       2.443899   6.330651   5.219158
O       2.445221   8.910124   5.784105
O      -0.097615   9.367197   5.345842
O      -2.774299   9.125253   5.313108
O      -2.260111   6.565634   5.554010
O       0.096167   5.401726   5.785616
O       2.717395   6.118557   2.111585
O       2.175565   8.677492   1.680975
O       0.036391  10.124565   1.626910
O      -2.193131   8.793200   2.079329
O      -2.486000   6.210811   1.668512
O       0.086040   5.752675   1.900584
O       1.823937   3.915264   1.103730
O      -1.591701   3.868575   1.062412
O       4.559021   7.656429   1.153133
O       2.343533  11.317307   1.301055
O      -2.188755  11.308478   1.139703
O      -4.429751   7.756244   1.063714
O       8.890592  -0.081529  11.078570
O      11.267111   3.590080  11.047781
O       8.403186   7.418644  11.160797
O       4.945709   7.577338  10.866411
O       4.559428  -0.058160  11.104467
O       2.093394   3.523696  10.809376
O       5.094197  -0.201781   6.259572
O       8.314050  -0.108553   6.128135
O      11.392648   3.779155   6.230680
O      -4.641986   7.538960   6.158964
O       4.608544   7.510177   6.137657
O       2.158317   3.851002   6.186027
O      10.353220   3.435334   8.601809
O       8.294338   6.854312   8.596494
O       4.952205   6.505393   8.500980
O       3.361614   3.686308   8.518346
O       4.703810   0.779446   8.624373
O       8.709649   0.741557   8.581878
O      -3.336446  11.145572  13.453198
O       1.780791   2.895514  13.353606
O      -1.900550   2.642476  13.445250
O       9.811160   0.117735  13.535585
O       5.200670   8.106651  13.431568
O       8.406200   8.590427  13.477897
O       3.801249   8.002390   3.661972
O       1.733304  10.405367   3.678485
O      -1.541976  10.826852   3.648869
O      -3.904258   7.439582   3.610004
O      -1.616359   4.554812   3.590922
O       1.515482   4.373564   3.692260
Si      3.323134   7.677741   5.177372
Al     -1.535987   5.009653   5.245513
Si     -3.241011   7.548794   2.129992
Si      1.576361  10.130375   2.084641
Ag     -0.150848   7.240297   7.325411
H       2.496963   8.259335   8.431719
H       1.998606   5.823040   8.411097
C       1.729564   7.832590   9.076345
C       1.444020   6.513398   9.045303
H       1.261582   8.497276   9.804180
H       0.753070   6.057370   9.752301
H      -1.179795   9.162209   9.509876
H      -1.763675   6.748478   9.675365
C      -1.793599   8.674446   8.752100
C      -2.099360   7.362950   8.840551
H      -2.243563   9.310359   7.990891
H      -2.804669   6.906496   8.152904

CELL_PARAMETERS {angstrom}
  13.575883649   0.028523357   0.006348864
  -6.793135294  11.451399982  -0.012479304
  -0.094784507  -0.151823469  14.716431142



