&CONTROL  
outdir='./outdir'
calculation='scf'
pseudo_dir='./'
/

&SYSTEM  
ibrav=0
nat=109
ntyp=4
ecutwfc=60
ecutrho=240
occupations='smearing'
degauss=0.02
smearing='gaussian'
vdw_corr='dft-d3'
/

&ELECTRONS  
conv_thr=1.0E-8
/

ATOMIC_SPECIES  
Si     28.08550  Si.upf
O      15.99940  O.upf
Al     26.98154  Al.upf
Ag    107.86820  Ag.upf

ATOMIC_POSITIONS (angstrom) 
Si     -3.573271  11.556217   0.333881
Si      1.637898   2.608881   0.176873
Si     -1.388879   2.505208   0.253194
Si     10.408012   0.101957   0.372913
Si      5.301334   8.828499   0.296236
Si      8.339740   9.030707   0.388716
Si      3.119696  -0.173145  11.855858
Si      1.505680   2.418933  11.814002
Si     -1.642313   2.373529  11.893815
Si     10.218542  -0.128182  11.982121
Si      5.232510   8.799462  11.957274
Si      8.170978   8.895026  11.936444
Si      9.974056   3.766644  10.172050
Si      8.244931   6.318251  10.091368
Si      5.232232   6.228460  10.090020
Si      3.439663   3.823759  10.062660
Si      5.173976   1.101234  10.138723
Si      8.255283   1.210707  10.220571
Si     10.008630   3.692854   7.031885
Si      8.354333   6.424404   7.063730
Si      5.215501   6.306668   7.013176
Si      3.529218   3.762618   7.030149
Si      5.198263   1.094600   7.161192
Si      8.241840   1.193954   7.092906
Si      1.432468  10.095708   5.229106
Si     -1.637005  10.259443   5.052782
Si     -3.311089   7.596588   5.120231
Si      1.588458   4.870643   5.075849
Si      3.330532   7.623254   2.152772
Si     -1.487442  10.255442   2.062126
Si     -1.427150   5.131137   2.060502
Si      1.517607   5.063496   2.132553
O      -4.631521  10.437427   0.843674
O       2.711786   1.570744   0.804138
O       0.148969   1.953187   0.279143
O      11.221814   1.398856   0.896517
O       4.555450  10.246159   0.493848
O       6.799830   9.006806   0.846141
O      -4.274504   9.861859  11.344922
O       2.119206   0.993183  11.346790
O      -0.071848   2.323034  11.599177
O      11.309820   0.962361  11.465982
O       4.024556   9.841307  11.731370
O       6.677350   9.523545  11.701789
O       8.918761   2.625801  10.640902
O       9.352453   5.221047  10.486640
O       6.755817   5.648886  10.136258
O       4.233325   5.097763  10.671998
O       4.387183   2.514335  10.164800
O       6.694744   1.376092  10.567128
O       9.184113   2.371060   6.560680
O       9.030744   4.982691   6.804568
O       6.787173   6.291700   6.722401
O       4.639612   4.853526   6.563602
O       4.148098   2.286905   6.995865
O       6.694505   1.647953   6.869138
O       2.441253   6.260442   5.124985
O       2.295991   8.798990   5.689202
O      -0.145399   9.618359   5.424267
O      -2.738821   9.113608   5.200418
O      -2.165926   6.587231   5.642696
O       0.129318   5.249221   5.630957
O       2.706590   6.148458   2.065531
O       2.230616   8.735027   1.724478
O       0.051703  10.078052   1.631853
O      -2.206411   8.811727   2.053922
O      -2.447563   6.250605   1.478099
O       0.079447   5.799159   1.972821
O       1.757628   4.010035   0.944689
O      -1.501606   3.874675   1.054949
O       4.593391   7.659574   1.156048
O       2.307380  11.384216   1.301672
O      -2.133704  11.298309   1.016768
O      -4.487644   7.786534   1.122994
O       8.862515  -0.006601  11.105120
O      11.329649   3.627837  11.039060
O       8.324530   7.486453  11.187312
O       5.038890   7.568677  10.948774
O       4.573451   0.025658  11.182840
O       2.077732   3.622621  10.900802
O       4.784714  -0.045123   6.110434
O       8.560136  -0.144810   6.232611
O      11.357288   3.778922   6.207322
O      -4.617136   7.535073   6.077779
O       4.545272   7.509258   6.152072
O       2.275529   3.755483   6.019684
O      10.335975   3.577937   8.619229
O       8.548615   6.915913   8.608269
O       4.853827   6.611524   8.560671
O       3.013106   4.118927   8.525765
O       5.105272   0.449179   8.648781
O       8.503827   0.847218   8.656755
O      -3.504645  11.315464  13.446478
O       1.912947   2.745089  13.343409
O      -1.952052   2.659293  13.450704
O       9.846847   0.120917  13.543590
O       5.187689   8.203037  13.465034
O       8.414551   8.659294  13.514708
O       3.841344   7.973461   3.661355
O       1.706530  10.496045   3.692115
O      -1.573174  10.890326   3.564929
O      -3.749016   7.281367   3.587910
O      -1.788905   4.663470   3.534529
O       1.586803   4.279042   3.561244
Si      3.297989   7.624599   5.144173
Al     -1.558591   4.975670   5.204406
Si     -3.213360   7.533828   2.074588
Si      1.586399  10.174705   2.095766
Ag     -0.086843   7.428229   6.433387

K_POINTS (automatic) 
3 3 3 0 0 0

CELL_PARAMETERS {angstrom}
  13.575883649   0.028523357   0.006348864
  -6.793135294  11.451399982  -0.012479304
  -0.094784507  -0.151823469  14.716431142
