&CONTROL  
outdir='./outdir'
calculation='scf'
pseudo_dir='./'
/

&SYSTEM  
ibrav=0
nat=114
ntyp=4
ecutwfc=60
ecutrho=240
occupations='smearing'
degauss=0.02
smearing='gaussian'
vdw_corr='dft-d3'
/

&ELECTRONS  
conv_thr=1.0E-8
/

ATOMIC_SPECIES  
Si     28.08550  Si.upf
O      15.99940  O.upf
H       1.00794  H.upf
C      12.01070  C.upf

ATOMIC_POSITIONS (angstrom) 
Si      3.209717   0.072104   1.626796
Si      1.593688   2.563821   1.423938
Si     -1.422114   2.471661   1.524588
Si     10.348231   0.052306   1.528905
Si      5.261091   8.746631   1.449555
Si     -5.255764   8.943412   1.634058
Si      3.115162  -0.224060  13.086389
Si      1.501600   2.392291  13.025899
Si     -1.650199   2.429318  13.139083
Si     10.268289  -0.140801  13.152206
Si      5.274617   8.720248  13.124346
Si     -5.344521   8.750884  13.160363
Si      9.978439   3.677876  11.290849
Si      8.172629   6.247056  11.287239
Si      5.202185   6.202749  11.237539
Si      3.558842   3.743530  11.355834
Si      5.165381   1.129139  11.412250
Si      8.319938   1.082170  11.287754
Si      9.992128   3.665440   8.249634
Si      8.286515   6.400246   8.301920
Si      5.212326   6.183249   8.108595
Si      3.557665   3.622950   8.150505
Si      5.157089   1.121935   8.350027
Si      8.181643   1.218967   8.242248
Si      1.426986  10.024850   6.372472
Si     -1.533939  10.099783   6.319550
Si     -3.321425   7.548588   6.387123
Si      1.503327   4.910964   6.395468
Si      3.272812   7.565285   3.334368
Si     -1.541392  10.212978   3.356343
Si     -1.466140   5.090126   3.367451
Si      1.500754   5.012358   3.428599
O      -4.647059  10.370804   2.109592
O       2.665969   1.533290   2.055868
O       0.105277   1.895006   1.482860
O      11.181358   1.326062   2.086993
O       4.484437  10.161464   1.539752
O       6.757083   8.991177   1.988482
O      -4.243136   9.763711  12.550347
O       2.058888   0.920404  12.621152
O      -0.082984   2.412648  12.817851
O      11.355857   0.986181  12.724568
O       4.121467   9.824504  12.967344
O       6.746433   9.407583  12.957252
O       8.891753   2.544660  11.704213
O       9.316586   5.133941  11.456318
O       6.695510   5.564788  11.424517
O       4.109226   5.183306  11.851265
O       4.617217   2.602380  11.824976
O       6.751714   1.098376  11.601887
O       9.147249   2.396447   7.700924
O       9.057966   4.983960   8.205388
O       6.783587   6.154423   7.784440
O       4.611065   4.749142   7.642030
O       4.094542   2.160974   7.712918
O       6.649408   1.780593   8.287427
O       2.208395   6.367118   6.491306
O       2.472221   8.947643   6.975581
O      -0.072749   9.379963   6.429298
O      -2.711182   9.028491   6.510430
O      -2.223322   6.455931   6.859570
O      -0.041012   5.078515   6.795831
O       2.671423   6.083325   3.192245
O       2.172629   8.651557   2.844522
O      -0.007544  10.020010   2.920182
O      -2.265363   8.765137   3.287485
O      -2.496814   6.183942   2.772146
O       0.037353   5.731877   3.340858
O       1.638227   3.922131   2.265978
O      -1.529656   3.747937   2.489543
O       4.576857   7.625628   2.386681
O       2.239855  11.289662   2.432163
O      -2.169994  11.272907   2.315059
O      -4.572993   7.719773   2.433253
O       8.990364  -0.093572  12.169110
O      -2.322579   3.610094  12.265235
O       8.380969   7.342085  12.441896
O       5.058852   7.620858  11.975574
O       4.555567   0.001411  12.394815
O       2.116713   3.519540  12.045079
O      -1.700814  11.176793   7.493524
O       1.498445  11.381658   7.227815
O      -2.286629   3.824300   7.306098
O       8.964021   7.517477   7.356615
O       4.543979   7.397054   7.281970
O       2.127152   3.855284   7.444466
O      10.491406   3.417495   9.773435
O       8.304301   6.963215   9.829676
O       4.902559   6.456720   9.669970
O       3.376719   3.710562   9.751756
O       4.749897   0.776222   9.882809
O       8.627470   0.747759   9.730528
O       3.395205  -0.022670   0.025541
O       1.901479   2.747993  14.558256
O      11.717608   2.947476   0.038666
O       9.856777   0.309043   0.004146
O       5.174683   8.010802  14.586665
O       8.612197   8.704088   0.073445
O       3.699582   7.872500   4.867237
O       1.814283  10.399640   4.843608
O      -1.659394  10.823638   4.863798
O      -3.776007   7.238216   4.862299
O      -1.870868   4.686530   4.884216
O       1.666448   4.309334   4.889124
Si      3.219528   7.629688   6.396975
Si     -1.605781   5.015175   6.448338
Si     -3.265999   7.492005   3.343867
Si      1.555486  10.090005   3.275104
H      -1.074275   8.893970   9.914337
C      -1.149999   7.807066   9.950114
H       0.915353   7.433953   9.664224
C      -0.082166   7.020454   9.817460
H      -2.149931   7.396656  10.093379
H      -0.163204   5.933526   9.849624

K_POINTS (automatic) 
3 3 3 0 0 0

CELL_PARAMETERS {angstrom}
 13.580063   0.016953   0.006722
 -6.805242  11.423568  -0.030227
 -0.094818  -0.174905  14.664905
